/*********************************************
 * OPL 12.9.0.0 Data
 * Author: agustin
 * Creation Date: Jan 31, 2020 at 5:18:42 AM
 *********************************************/
n = 18;

p=[30 17 30 43 34 33 58 31 55 48 19 56 33 58 58 43 45 21];
d=[46 35 38 44 45 40 63 47 76 60 56 45 47 58 75 49 51 31];
w=[2 1 2 1 1 3 2 1 1 1 2 1 3 2 1 1 1 3];